% demand
num_movements = 46;
loading_factor = [850, 950, 1000, 900, 1800, 1750, 1900, 1600, 1600, 1000, 1800, 1100, 1400, 2000, 1900, 1050, 950, 1250, 1100, 800, 900, 800, 1100, 1800, 1350, 1900, 900, 1250, 800, 1350, 1500, 1150, 950, 1450, 800, 900, 1700, 1350, 1950, 1100, 900, 1800, 1700, 800, 950, 950];
pickup_time = [0, 0, 0, 0, 0, 0, 0, 0, 3, 3, 3, 3, 4, 4, 4, 4, 4, 5, 5, 5, 6, 6, 6, 6, 6, 7, 7, 7, 7, 7, 7, 7, 8, 8, 9, 9, 10, 10, 10, 10, 10, 10, 10, 11, 11, 12];
delivery_time = [2, 2, 2, 2, 2, 2, 2, 2, 5, 6, 4, 5, 5, 5, 7, 5, 5, 7, 7, 7, 7, 8, 7, 7, 8, 8, 8, 8, 8, 8, 8, 8, 9, 9, 10, 10, 13, 11, 13, 13, 13, 11, 13, 12, 13, 13];

% transporter definition
total_capacity = 11000;
num_decks = 4;
capacity = [3000, 3000, 1000, 4000];

% ways out of decks
num_ways_out = 2;
paths_out = array3d(decks, ways_out, decks, [
% ways out of deck d1
2, 4, 0, 0, 3, 4, 0, 0, 

% ways out of deck d2
4, 0, 0, 0, 0, 0, 0, 0,	

% ways out of deck d3
4, 0, 0, 0, 0, 0, 0, 0,	

% ways out of deck d4
0, 0, 0, 0,	0, 0, 0, 0,	

]);

